\ SCIP STATISTICS
\   Problem name     : sac-a-dos-12.zpl
\   Variables        : 12 (12 binary, 0 integer, 0 implicit integer, 0 continuous)
\   Constraints      : 1
\   Obj. scale       : 1
\   Obj. offset      : 0
Maximize
 Obj: +20 x#1 +10 x#2 +25 x#3 +11 x#4 +5 x#5 +50 x#6 +15 x#7 +12 x#8 +6 x#9 +5 x#10 +4 x#11 +30 x#12
Subject to
 poids_1: +11 x#1 +7 x#2 +5 x#3 +5 x#4 +4 x#5 +3 x#6 +3 x#7 +2 x#8 +2 x#9 +2 x#10 +2 x#11 +1 x#12 <= +20
Bounds
 0 <= x#1 <= 1
 0 <= x#2 <= 1
 0 <= x#3 <= 1
 0 <= x#4 <= 1
 0 <= x#5 <= 1
 0 <= x#6 <= 1
 0 <= x#7 <= 1
 0 <= x#8 <= 1
 0 <= x#9 <= 1
 0 <= x#10 <= 1
 0 <= x#11 <= 1
 0 <= x#12 <= 1
Binaries
 x#1 x#2 x#3 x#4 x#5 x#6 x#7 x#8 x#9 x#10 x#11 x#12
End
